50
    1    56    55
    2    92    96
    3    86    46
    4    82    27
    5    67     8
    6    91    65
    7    19    81
    8    65    95
    9    12    93
   10    92    22
   11    41    95
   12     9    79
   13    41    96
   14   100    56
   15    41    28
   16    94    28
   17    24    45
   18    84    88
   19    32    61
   20    39    90
   21    39    77
   22    85    11
   23    42    56
   24    58    14
   25    35    56
   26    52    36
   27    90    78
   28     5    95
   29    36     5
   30    70    87
   31    35    33
   32    78     7
   33    54     7
   34    45    89
   35    57   100
   36    11    37
   37    15    12
   38     1    80
   39    60    56
   40     5     6
   41    78    51
   42    79    77
   43    71    90
   44    89    73
   45    20    39
   46    61    58
   47    66     9
   48     6    29
   49    78    19
   50    51    52
2244
